(set-info :smt-lib-version 2.8)
(set-logic QF_EIA)
(set-info :source |
Generated by: Florian Frohn
Generator: LoAT
Application: proving lower bounds on the worst-case runtime of transition systems
Target solver: SwInE
Time limit: 1.0
Benchmarks generated by the verification tool LoAT to evaluate the SMT solver
SwInE. We extracted all benchmarks with exponentiation that were generated by
LoAT when analyzing the examples from the category LIA-Lin (linear CHCs with
linear integer arithmetic) of the CHC competitions 2022 and 2023, and when
analyzing the examples from the categories "Termination of Integer Transition
Systems" and "Complexity of Integer Transition Systems" of the Termination and
Complexity Competition 2024. From the entire set, we selected those where
* SwInE v0.1.0 or SwInE-Z3 v0.1.2 failed or needed more than 1 second, or
* SwInE-Z3 v0.1.2 failed without phasing, a technique to prevent SwInE from
  computing with huge constants (described here
  https://arxiv.org/abs/2502.04761)
If several selected benchmarks only differed in lines not containing
exponentiation, we kept only one of them. This benchmark is known to be
satisfiable with the slightly different semantics of exponentiation used by the
versions of SwInE mentioned above.
|)
(set-info :license "https://creativecommons.org/licenses/by/4.0/")
(set-info :category "industrial")
(set-info :status unknown)

(declare-fun i1 () Int)
(declare-fun it1 () Int)
(declare-fun it2 () Int)
(declare-fun i2 () Int)
(declare-fun i3 () Int)
(declare-fun it3 () Int)
(declare-fun it4 () Int)
(declare-fun i5 () Int)
(declare-fun it5 () Int)
(declare-fun i7 () Int)
(declare-fun it6 () Int)
(declare-fun it7 () Int)
(declare-fun it8 () Int)
(declare-fun it9 () Int)
(declare-fun it10 () Int)
(declare-fun it11 () Int)
(declare-fun it12 () Int)
(declare-fun it13 () Int)
(declare-fun it14 () Int)
(declare-fun it15 () Int)
(declare-fun it16 () Int)
(declare-fun it78 () Int)
(declare-fun it80 () Int)
(declare-fun it81 () Int)
(declare-fun it82 () Int)
(declare-fun it83 () Int)
(declare-fun it84 () Int)
(declare-fun it85 () Int)
(declare-fun it86 () Int)
(declare-fun it87 () Int)
(declare-fun it92 () Int)
(declare-fun it93 () Int)
(declare-fun it94 () Int)
(declare-fun it95 () Int)
(declare-fun it96 () Int)
(declare-fun it97 () Int)
(declare-fun it98 () Int)
(declare-fun it99 () Int)
(declare-fun it102 () Int)
(declare-fun it103 () Int)
(declare-fun it104 () Int)
(declare-fun it105 () Int)
(declare-fun it106 () Int)
(declare-fun it107 () Int)
(declare-fun it108 () Int)
(declare-fun it109 () Int)
(declare-fun it88 () Int)
(declare-fun it117 () Int)
(declare-fun it118 () Int)
(declare-fun it119 () Int)
(declare-fun it120 () Int)
(declare-fun it121 () Int)
(declare-fun it122 () Int)
(declare-fun it123 () Int)
(declare-fun it124 () Int)
(assert (= (+ i1 (- 1)) 0))
(assert (= (+ it1 (- 2)) 0))
(assert (= (+ (* i2 (- 1)) it2 (- 1)) 0))
(assert (= (+ it3 (* i3 (- 1))) 0))
(assert (= (+ (* i5 (- 1)) it4) 0))
(assert (= (+ (* i5 (- 1)) it5) 0))
(assert (= (+ it6 (* i7 (- 1))) 0))
(assert (= (+ it7 (* i7 (- 1))) 0))
(assert (= (+ (* i3 (- 1)) it8) 0))
(assert (and (= (+ it4 (* it5 (- 1))) 0)
     (= (+ it1 (- 2)) 0)
     (= (+ it6 (* it7 (- 1))) 0)
     (>= (+ it3 (- 2)) 0)
     (= (+ (* it3 (- 1)) it8) 0)))
(assert (= (+ it9 (- 5)) 0))
(assert (= (+ it10 (* it2 (- 1)) (- 1)) 0))
(assert (= (+ (* it3 (- 1)) it11) 0))
(assert (= (+ it12 (- 2)) 0))
(assert (= (+ it13 (* it5 (- 1))) 0))
(assert (= (+ it14 (* it8 (- 1))) 0))
(assert (= (+ it15 (* it7 (- 1))) 0))
(assert (= (+ it16 (* it8 (- 1))) 0))
(assert (let ((a!1 (* (+ 0 it12) (** 2 (+ it78 (- 1))) (+ 0 (- 1)))))
(let ((a!2 (>= (+ a!1 (+ 0 (* it14 2)) (+ 0 (- 2))) (+ 0 0))))
  (and (>= (+ (* it16 (- 1)) it11) 0)
       (>= (+ (* it12 (- 1)) (* it14 2) (- 2)) 0)
       (>= (+ (* it9 (- 1)) 5) 0)
       (>= (+ it12 (- 2)) 0)
       (>= (+ it16 (* it11 (- 1))) 0)
       (>= (+ a!1 (+ 0 it14) (+ 0 (- 1))) (+ 0 0))
       a!2
       (>= (+ (* it14 (- 1)) it11) 0)
       (>= (+ it9 (- 5)) 0)
       (>= (+ it78 (- 1)) 0)))))
(assert (= (+ (* it9 (- 1)) it80) 0))
(assert (= (+ (* it78 (- 1)) (* it10 (- 1)) it81) 0))
(assert (= (+ it82 (* it11 (- 1))) 0))
(assert (= (+ (+ 0 it83) (* (+ 0 it12) (** 2 it78) (+ 0 (- 1)))) (+ 0 0)))
(assert (= (+ (* it13 (- 1)) it84) 0))
(assert (= (+ (* it14 (- 1)) it85) 0))
(assert (= (+ (* it15 (- 1)) it86) 0))
(assert (= (+ (* it16 (- 1)) it87) 0))
(assert (and (>= (+ it82 (* it85 (- 1))) 0)
     (= (+ it80 (- 5)) 0)
     (>= (+ it83 (* it85 (- 1))) 0)
     (= (+ (* it82 (- 1)) it87) 0)
     (>= (+ (* it83 (- 1)) (* it85 2) (- 2)) 0)
     (>= (+ it83 (- 2)) 0)))
(assert (= (+ it92 (- 4)) 0))
(assert (= (+ it93 (* it81 (- 1)) (- 1)) 0))
(assert (= (+ (* it82 (- 1)) it94) 0))
(assert (= (+ (* it83 (- 1)) it95) 0))
(assert (= (+ it96 (* it84 (- 1))) 0))
(assert (= (+ it97 (* it85 (- 1)) 1) 0))
(assert (= (+ (* it86 (- 1)) it98) 0))
(assert (= (+ it99 (* it87 (- 1))) 0))
(assert (and (= (+ it92 (- 4)) 0)
     (>= (+ (* it97 (- 1)) it94 (- 1)) 0)
     (>= (+ it95 (- 1)) 0)
     (>= (+ it97 1) 0)
     (>= (+ it97 (- 2)) 0)
     (>= (+ (* it97 (- 1)) it95 (- 1)) 0)
     (= (+ it99 (* it94 (- 1))) 0)))
(assert (= (+ it102 (- 5)) 0))
(assert (= (+ (* it93 (- 1)) it103 (- 1)) 0))
(assert (= (+ (* it94 (- 1)) it104) 0))
(assert (= (+ it105 (- 2)) 0))
(assert (= (+ (* it96 (- 1)) it106) 0))
(assert (= (+ (* it97 (- 1)) it107) 0))
(assert (= (+ (* it98 (- 1)) it108) 0))
(assert (= (+ (* it99 (- 1)) it109) 0))
(assert (let ((a!1 (* (** 2 (+ it88 (- 1))) (+ 0 it105) (+ 0 (- 1)))))
(let ((a!2 (>= (+ a!1 (+ 0 (* it107 2)) (+ 0 (- 2))) (+ 0 0))))
  (and (>= (+ (* it107 (- 1)) it104) 0)
       (>= (+ it88 (- 1)) 0)
       a!2
       (>= (+ it105 (- 2)) 0)
       (>= (+ (* it107 2) (* it105 (- 1)) (- 2)) 0)
       (>= (+ (* it102 (- 1)) 5) 0)
       (>= (+ a!1 (+ 0 it107) (+ 0 (- 1))) (+ 0 0))
       (>= (+ it109 (* it104 (- 1))) 0)
       (>= (+ (* it109 (- 1)) it104) 0)
       (>= (+ it102 (- 5)) 0)))))
(assert (= (+ (* it102 (- 1)) it117) 0))
(assert (= (+ (* it103 (- 1)) it118 (* it88 (- 1))) 0))
(assert (= (+ it119 (* it104 (- 1))) 0))
(assert (= (+ (+ 0 it120) (* (** 2 it88) (+ 0 it105) (+ 0 (- 1))))
   (+ 0 0)))
(assert (= (+ (* it106 (- 1)) it121) 0))
(assert (= (+ it122 (* it107 (- 1))) 0))
(assert (= (+ it123 (* it108 (- 1))) 0))
(assert (= (+ (* it109 (- 1)) it124) 0))
(check-sat)
(exit)
